c User generated cnf file
p cnf 15 60
12 -7 1 0 
13 13 -12 0 
4 7 -8 0 
14 -15 10 0 
10 -10 11 0 
11 14 -14 0 
13 -1 9 0 
11 -15 5 0 
15 -2 1 0 
13 15 -10 0 
7 -2 3 0 
1 15 -13 0 
11 -7 15 0 
12 4 -5 0 
3 7 -13 0 
4 -9 15 0 
4 15 -13 0 
1 1 -1 0 
9 -15 3 0 
12 -4 12 0 
2 1 -3 0 
2 -13 13 0 
2 -2 10 0 
15 -1 3 0 
5 3 -11 0 
10 -2 10 0 
3 -1 1 0 
11 15 -10 0 
14 -2 9 0 
9 7 -13 0 
6 -14 9 0 
1 -15 14 0 
13 -14 4 0 
10 2 -15 0 
15 -4 12 0 
14 8 -12 0 
10 -1 3 0 
15 2 -13 0 
12 5 -11 0 
3 -14 12 0 
8 8 -12 0 
12 -4 9 0 
9 6 -10 0 
7 11 -10 0 
12 12 -13 0 
6 -10 15 0 
8 -2 2 0 
3 8 -15 0 
4 -13 6 0 
12 -15 4 0 
10 12 -9 0 
15 -3 7 0 
2 -15 11 0 
3 6 -13 0 
4 10 -6 0 
13 15 -5 0 
2 -5 3 0 
2 1 -11 0 
8 -15 11 0 
1 -14 1 0 
